NAME A2PERIODIC
ROWS
 N OBJ
 E R0
 E R1
 E R2
 E R3
 E R4
 E R5
 E R6
 E R7
 E R8
 E R9
 E R10
 E R11
 E R12
 E R13
 E COUNT
COLUMNS
 MARK0000 'MARKER' 'INTORG'
 X1 R2 11
 X1 R3 17
 X1 R4 14
 X1 R5 14
 X1 COUNT 1
 X2 R4 11
 X2 R5 17
 X2 R6 14
 X2 R7 14
 X2 COUNT 1
 X3 R6 11
 X3 R7 17
 X3 R8 14
 X3 R9 14
 X3 COUNT 1
 X4 R8 11
 X4 R9 17
 X4 R10 14
 X4 R11 14
 X4 COUNT 1
 X5 R10 11
 X5 R11 17
 X5 R12 14
 X5 R13 14
 X5 COUNT 1
 X6 R0 14
 X6 R1 14
 X6 R12 11
 X6 R13 17
 X6 COUNT 1
 X7 R0 17
 X7 R1 11
 X7 R2 14
 X7 R3 14
 X7 COUNT 1
 X8 R2 17
 X8 R3 11
 X8 R4 14
 X8 R5 14
 X8 COUNT 1
 X9 R4 17
 X9 R5 11
 X9 R6 14
 X9 R7 14
 X9 COUNT 1
 X10 R6 17
 X10 R7 11
 X10 R8 14
 X10 R9 14
 X10 COUNT 1
 X11 R8 17
 X11 R9 11
 X11 R10 14
 X11 R11 14
 X11 COUNT 1
 X12 R10 17
 X12 R11 11
 X12 R12 14
 X12 R13 14
 X12 COUNT 1
 X13 R0 14
 X13 R1 14
 X13 R12 17
 X13 R13 11
 X13 COUNT 1
 X14 R0 8
 X14 R1 3
 X14 R2 20
 X14 R3 23
 X14 R5 2
 X14 COUNT 1
 X15 R2 8
 X15 R3 3
 X15 R4 20
 X15 R5 23
 X15 R7 2
 X15 COUNT 1
 X16 R4 8
 X16 R5 3
 X16 R6 20
 X16 R7 23
 X16 R9 2
 X16 COUNT 1
 X17 R6 8
 X17 R7 3
 X17 R8 20
 X17 R9 23
 X17 R11 2
 X17 COUNT 1
 X18 R8 8
 X18 R9 3
 X18 R10 20
 X18 R11 23
 X18 R13 2
 X18 COUNT 1
 X19 R1 2
 X19 R10 8
 X19 R11 3
 X19 R12 20
 X19 R13 23
 X19 COUNT 1
 X20 R0 20
 X20 R1 23
 X20 R3 2
 X20 R12 8
 X20 R13 3
 X20 COUNT 1
 X21 R0 3
 X21 R1 8
 X21 R2 23
 X21 R3 20
 X21 R4 2
 X21 COUNT 1
 X22 R2 3
 X22 R3 8
 X22 R4 23
 X22 R5 20
 X22 R6 2
 X22 COUNT 1
 X23 R4 3
 X23 R5 8
 X23 R6 23
 X23 R7 20
 X23 R8 2
 X23 COUNT 1
 X24 R6 3
 X24 R7 8
 X24 R8 23
 X24 R9 20
 X24 R10 2
 X24 COUNT 1
 X25 R8 3
 X25 R9 8
 X25 R10 23
 X25 R11 20
 X25 R12 2
 X25 COUNT 1
 X26 R0 2
 X26 R10 3
 X26 R11 8
 X26 R12 23
 X26 R13 20
 X26 COUNT 1
 X27 R0 23
 X27 R1 20
 X27 R2 2
 X27 R12 3
 X27 R13 8
 X27 COUNT 1
 X28 R0 7
 X28 R1 13
 X28 R2 5
 X28 R3 26
 X28 R4 1
 X28 R5 4
 X28 COUNT 1
 X29 R2 7
 X29 R3 13
 X29 R4 5
 X29 R5 26
 X29 R6 1
 X29 R7 4
 X29 COUNT 1
 X30 R4 7
 X30 R5 13
 X30 R6 5
 X30 R7 26
 X30 R8 1
 X30 R9 4
 X30 COUNT 1
 X31 R6 7
 X31 R7 13
 X31 R8 5
 X31 R9 26
 X31 R10 1
 X31 R11 4
 X31 COUNT 1
 X32 R8 7
 X32 R9 13
 X32 R10 5
 X32 R11 26
 X32 R12 1
 X32 R13 4
 X32 COUNT 1
 X33 R0 1
 X33 R1 4
 X33 R10 7
 X33 R11 13
 X33 R12 5
 X33 R13 26
 X33 COUNT 1
 X34 R0 5
 X34 R1 26
 X34 R2 1
 X34 R3 4
 X34 R12 7
 X34 R13 13
 X34 COUNT 1
 X35 R0 13
 X35 R1 7
 X35 R2 26
 X35 R3 5
 X35 R4 4
 X35 R5 1
 X35 COUNT 1
 X36 R2 13
 X36 R3 7
 X36 R4 26
 X36 R5 5
 X36 R6 4
 X36 R7 1
 X36 COUNT 1
 X37 R4 13
 X37 R5 7
 X37 R6 26
 X37 R7 5
 X37 R8 4
 X37 R9 1
 X37 COUNT 1
 X38 R6 13
 X38 R7 7
 X38 R8 26
 X38 R9 5
 X38 R10 4
 X38 R11 1
 X38 COUNT 1
 X39 R8 13
 X39 R9 7
 X39 R10 26
 X39 R11 5
 X39 R12 4
 X39 R13 1
 X39 COUNT 1
 X40 R0 4
 X40 R1 1
 X40 R10 13
 X40 R11 7
 X40 R12 26
 X40 R13 5
 X40 COUNT 1
 X41 R0 26
 X41 R1 5
 X41 R2 4
 X41 R3 1
 X41 R12 13
 X41 R13 7
 X41 COUNT 1
 X42 R0 11
 X42 R1 9
 X42 R11 5
 X42 R12 17
 X42 R13 14
 X42 COUNT 1
 X43 R0 17
 X43 R1 14
 X43 R2 11
 X43 R3 9
 X43 R13 5
 X43 COUNT 1
 X44 R1 5
 X44 R2 17
 X44 R3 14
 X44 R4 11
 X44 R5 9
 X44 COUNT 1
 X45 R3 5
 X45 R4 17
 X45 R5 14
 X45 R6 11
 X45 R7 9
 X45 COUNT 1
 X46 R5 5
 X46 R6 17
 X46 R7 14
 X46 R8 11
 X46 R9 9
 X46 COUNT 1
 X47 R7 5
 X47 R8 17
 X47 R9 14
 X47 R10 11
 X47 R11 9
 X47 COUNT 1
 X48 R9 5
 X48 R10 17
 X48 R11 14
 X48 R12 11
 X48 R13 9
 X48 COUNT 1
 X49 R0 9
 X49 R1 11
 X49 R10 5
 X49 R12 14
 X49 R13 17
 X49 COUNT 1
 X50 R0 14
 X50 R1 17
 X50 R2 9
 X50 R3 11
 X50 R12 5
 X50 COUNT 1
 X51 R0 5
 X51 R2 14
 X51 R3 17
 X51 R4 9
 X51 R5 11
 X51 COUNT 1
 X52 R2 5
 X52 R4 14
 X52 R5 17
 X52 R6 9
 X52 R7 11
 X52 COUNT 1
 X53 R4 5
 X53 R6 14
 X53 R7 17
 X53 R8 9
 X53 R9 11
 X53 COUNT 1
 X54 R6 5
 X54 R8 14
 X54 R9 17
 X54 R10 9
 X54 R11 11
 X54 COUNT 1
 X55 R8 5
 X55 R10 14
 X55 R11 17
 X55 R12 9
 X55 R13 11
 X55 COUNT 1
 X56 R0 8
 X56 R1 20
 X56 R12 5
 X56 R13 23
 X56 COUNT 1
 X57 R0 5
 X57 R1 23
 X57 R2 8
 X57 R3 20
 X57 COUNT 1
 X58 R2 5
 X58 R3 23
 X58 R4 8
 X58 R5 20
 X58 COUNT 1
 X59 R4 5
 X59 R5 23
 X59 R6 8
 X59 R7 20
 X59 COUNT 1
 X60 R6 5
 X60 R7 23
 X60 R8 8
 X60 R9 20
 X60 COUNT 1
 X61 R8 5
 X61 R9 23
 X61 R10 8
 X61 R11 20
 X61 COUNT 1
 X62 R10 5
 X62 R11 23
 X62 R12 8
 X62 R13 20
 X62 COUNT 1
 X63 R0 20
 X63 R1 8
 X63 R12 23
 X63 R13 5
 X63 COUNT 1
 X64 R0 23
 X64 R1 5
 X64 R2 20
 X64 R3 8
 X64 COUNT 1
 X65 R2 23
 X65 R3 5
 X65 R4 20
 X65 R5 8
 X65 COUNT 1
 X66 R4 23
 X66 R5 5
 X66 R6 20
 X66 R7 8
 X66 COUNT 1
 X67 R6 23
 X67 R7 5
 X67 R8 20
 X67 R9 8
 X67 COUNT 1
 X68 R8 23
 X68 R9 5
 X68 R10 20
 X68 R11 8
 X68 COUNT 1
 X69 R10 23
 X69 R11 5
 X69 R12 20
 X69 R13 8
 X69 COUNT 1
 X70 R0 7
 X70 R1 4
 X70 R10 1
 X70 R11 1
 X70 R12 17
 X70 R13 26
 X70 COUNT 1
 X71 R0 17
 X71 R1 26
 X71 R2 7
 X71 R3 4
 X71 R12 1
 X71 R13 1
 X71 COUNT 1
 X72 R0 1
 X72 R1 1
 X72 R2 17
 X72 R3 26
 X72 R4 7
 X72 R5 4
 X72 COUNT 1
 X73 R2 1
 X73 R3 1
 X73 R4 17
 X73 R5 26
 X73 R6 7
 X73 R7 4
 X73 COUNT 1
 X74 R4 1
 X74 R5 1
 X74 R6 17
 X74 R7 26
 X74 R8 7
 X74 R9 4
 X74 COUNT 1
 X75 R6 1
 X75 R7 1
 X75 R8 17
 X75 R9 26
 X75 R10 7
 X75 R11 4
 X75 COUNT 1
 X76 R8 1
 X76 R9 1
 X76 R10 17
 X76 R11 26
 X76 R12 7
 X76 R13 4
 X76 COUNT 1
 X77 R0 4
 X77 R1 7
 X77 R10 1
 X77 R11 1
 X77 R12 26
 X77 R13 17
 X77 COUNT 1
 X78 R0 26
 X78 R1 17
 X78 R2 4
 X78 R3 7
 X78 R12 1
 X78 R13 1
 X78 COUNT 1
 X79 R0 1
 X79 R1 1
 X79 R2 26
 X79 R3 17
 X79 R4 4
 X79 R5 7
 X79 COUNT 1
 X80 R2 1
 X80 R3 1
 X80 R4 26
 X80 R5 17
 X80 R6 4
 X80 R7 7
 X80 COUNT 1
 X81 R4 1
 X81 R5 1
 X81 R6 26
 X81 R7 17
 X81 R8 4
 X81 R9 7
 X81 COUNT 1
 X82 R6 1
 X82 R7 1
 X82 R8 26
 X82 R9 17
 X82 R10 4
 X82 R11 7
 X82 COUNT 1
 X83 R8 1
 X83 R9 1
 X83 R10 26
 X83 R11 17
 X83 R12 4
 X83 R13 7
 X83 COUNT 1
 MARK0001 'MARKER' 'INTEND'
RHS
 RHS1 R0 37
 RHS1 R1 31
 RHS1 R2 34
 RHS1 R3 34
 RHS1 R4 48
 RHS1 R5 48
 RHS1 R6 48
 RHS1 R7 48
 RHS1 R8 48
 RHS1 R9 48
 RHS1 R10 48
 RHS1 R11 48
 RHS1 R12 48
 RHS1 R13 48
 RHS1 COUNT 11
BOUNDS
 BV BND X1
 BV BND X2
 BV BND X3
 BV BND X4
 BV BND X5
 BV BND X6
 BV BND X7
 BV BND X8
 BV BND X9
 BV BND X10
 BV BND X11
 BV BND X12
 BV BND X13
 BV BND X14
 BV BND X15
 BV BND X16
 BV BND X17
 BV BND X18
 BV BND X19
 BV BND X20
 BV BND X21
 BV BND X22
 BV BND X23
 BV BND X24
 BV BND X25
 BV BND X26
 BV BND X27
 BV BND X28
 BV BND X29
 BV BND X30
 BV BND X31
 BV BND X32
 BV BND X33
 BV BND X34
 BV BND X35
 BV BND X36
 BV BND X37
 BV BND X38
 BV BND X39
 BV BND X40
 BV BND X41
 BV BND X42
 BV BND X43
 BV BND X44
 BV BND X45
 BV BND X46
 BV BND X47
 BV BND X48
 BV BND X49
 BV BND X50
 BV BND X51
 BV BND X52
 BV BND X53
 BV BND X54
 BV BND X55
 BV BND X56
 BV BND X57
 BV BND X58
 BV BND X59
 BV BND X60
 BV BND X61
 BV BND X62
 BV BND X63
 BV BND X64
 BV BND X65
 BV BND X66
 BV BND X67
 BV BND X68
 BV BND X69
 BV BND X70
 BV BND X71
 BV BND X72
 BV BND X73
 BV BND X74
 BV BND X75
 BV BND X76
 BV BND X77
 BV BND X78
 BV BND X79
 BV BND X80
 BV BND X81
 BV BND X82
 BV BND X83
ENDATA
