NAME A2PERIODIC
ROWS
 N OBJ
 E R0
 E R1
 E R2
 E R3
 E R4
 E R5
 E R6
 E R7
 E R8
 E R9
 E R10
 E R11
 E R12
 E R13
 E R14
 E R15
 E R16
 E R17
 E R18
 E R19
 E R20
 E R21
 E R22
 E R23
 E R24
 E R25
 E R26
 E R27
 E COUNT
COLUMNS
 MARK0000 'MARKER' 'INTORG'
 X1 R0 1
 X1 R1 2
 X1 R2 2
 X1 R4 1
 X1 R5 3
 X1 R6 3
 X1 R8 2
 X1 R9 2
 X1 R10 2
 X1 R11 3
 X1 R12 3
 X1 R13 4
 X1 R14 3
 X1 R15 2
 X1 R17 2
 X1 R18 3
 X1 R19 2
 X1 R20 1
 X1 R27 1
 X1 COUNT 1
 X2 R3 1
 X2 R4 1
 X2 R5 2
 X2 R6 2
 X2 R8 1
 X2 R9 3
 X2 R10 3
 X2 R12 2
 X2 R13 2
 X2 R14 2
 X2 R15 3
 X2 R16 3
 X2 R17 4
 X2 R18 3
 X2 R19 2
 X2 R21 2
 X2 R22 3
 X2 R23 2
 X2 R24 1
 X2 COUNT 1
 X3 R0 1
 X3 R7 1
 X3 R8 1
 X3 R9 2
 X3 R10 2
 X3 R12 1
 X3 R13 3
 X3 R14 3
 X3 R16 2
 X3 R17 2
 X3 R18 2
 X3 R19 3
 X3 R20 3
 X3 R21 4
 X3 R22 3
 X3 R23 2
 X3 R25 2
 X3 R26 3
 X3 R27 2
 X3 COUNT 1
 X4 R1 2
 X4 R2 3
 X4 R3 2
 X4 R4 1
 X4 R11 1
 X4 R12 1
 X4 R13 2
 X4 R14 2
 X4 R16 1
 X4 R17 3
 X4 R18 3
 X4 R20 2
 X4 R21 2
 X4 R22 2
 X4 R23 3
 X4 R24 3
 X4 R25 4
 X4 R26 3
 X4 R27 2
 X4 COUNT 1
 X5 R0 3
 X5 R1 4
 X5 R2 3
 X5 R3 2
 X5 R5 2
 X5 R6 3
 X5 R7 2
 X5 R8 1
 X5 R15 1
 X5 R16 1
 X5 R17 2
 X5 R18 2
 X5 R20 1
 X5 R21 3
 X5 R22 3
 X5 R24 2
 X5 R25 2
 X5 R26 2
 X5 R27 3
 X5 COUNT 1
 X6 R0 2
 X6 R1 2
 X6 R2 2
 X6 R3 3
 X6 R4 3
 X6 R5 4
 X6 R6 3
 X6 R7 2
 X6 R9 2
 X6 R10 3
 X6 R11 2
 X6 R12 1
 X6 R19 1
 X6 R20 1
 X6 R21 2
 X6 R22 2
 X6 R24 1
 X6 R25 3
 X6 R26 3
 X6 COUNT 1
 X7 R0 3
 X7 R2 1
 X7 R3 3
 X7 R4 2
 X7 R5 3
 X7 R6 2
 X7 R7 2
 X7 R8 3
 X7 R9 2
 X7 R10 3
 X7 R11 4
 X7 R12 3
 X7 R13 2
 X7 R15 2
 X7 R18 1
 X7 R21 1
 X7 R24 2
 X7 R26 1
 X7 R27 2
 X7 COUNT 1
 X8 R0 2
 X8 R2 1
 X8 R3 2
 X8 R4 3
 X8 R6 1
 X8 R7 3
 X8 R8 2
 X8 R9 3
 X8 R10 2
 X8 R11 2
 X8 R12 3
 X8 R13 2
 X8 R14 3
 X8 R15 4
 X8 R16 3
 X8 R17 2
 X8 R19 2
 X8 R22 1
 X8 R25 1
 X8 COUNT 1
 X9 R1 1
 X9 R4 2
 X9 R6 1
 X9 R7 2
 X9 R8 3
 X9 R10 1
 X9 R11 3
 X9 R12 2
 X9 R13 3
 X9 R14 2
 X9 R15 2
 X9 R16 3
 X9 R17 2
 X9 R18 3
 X9 R19 4
 X9 R20 3
 X9 R21 2
 X9 R23 2
 X9 R26 1
 X9 COUNT 1
 X10 R2 1
 X10 R5 1
 X10 R8 2
 X10 R10 1
 X10 R11 2
 X10 R12 3
 X10 R14 1
 X10 R15 3
 X10 R16 2
 X10 R17 3
 X10 R18 2
 X10 R19 2
 X10 R20 3
 X10 R21 2
 X10 R22 3
 X10 R23 4
 X10 R24 3
 X10 R25 2
 X10 R27 2
 X10 COUNT 1
 X11 R0 3
 X11 R1 2
 X11 R3 2
 X11 R6 1
 X11 R9 1
 X11 R12 2
 X11 R14 1
 X11 R15 2
 X11 R16 3
 X11 R18 1
 X11 R19 3
 X11 R20 2
 X11 R21 3
 X11 R22 2
 X11 R23 2
 X11 R24 3
 X11 R25 2
 X11 R26 3
 X11 R27 4
 X11 COUNT 1
 X12 R0 3
 X12 R1 2
 X12 R2 3
 X12 R3 4
 X12 R4 3
 X12 R5 2
 X12 R7 2
 X12 R10 1
 X12 R13 1
 X12 R16 2
 X12 R18 1
 X12 R19 2
 X12 R20 3
 X12 R22 1
 X12 R23 3
 X12 R24 2
 X12 R25 3
 X12 R26 2
 X12 R27 2
 X12 COUNT 1
 X13 R0 2
 X13 R1 3
 X13 R2 2
 X13 R3 2
 X13 R4 3
 X13 R5 2
 X13 R6 3
 X13 R7 4
 X13 R8 3
 X13 R9 2
 X13 R11 2
 X13 R14 1
 X13 R17 1
 X13 R20 2
 X13 R22 1
 X13 R23 2
 X13 R24 3
 X13 R26 1
 X13 R27 3
 X13 COUNT 1
 X14 R0 3
 X14 R1 1
 X14 R3 3
 X14 R4 2
 X14 R5 2
 X14 R6 3
 X14 R7 2
 X14 R8 4
 X14 R9 3
 X14 R10 2
 X14 R11 3
 X14 R12 2
 X14 R14 2
 X14 R15 3
 X14 R17 1
 X14 R22 1
 X14 R24 2
 X14 R25 1
 X14 R27 2
 X14 COUNT 1
 X15 R0 2
 X15 R1 1
 X15 R3 2
 X15 R4 3
 X15 R5 1
 X15 R7 3
 X15 R8 2
 X15 R9 2
 X15 R10 3
 X15 R11 2
 X15 R12 4
 X15 R13 3
 X15 R14 2
 X15 R15 3
 X15 R16 2
 X15 R18 2
 X15 R19 3
 X15 R21 1
 X15 R26 1
 X15 COUNT 1
 X16 R2 1
 X16 R4 2
 X16 R5 1
 X16 R7 2
 X16 R8 3
 X16 R9 1
 X16 R11 3
 X16 R12 2
 X16 R13 2
 X16 R14 3
 X16 R15 2
 X16 R16 4
 X16 R17 3
 X16 R18 2
 X16 R19 3
 X16 R20 2
 X16 R22 2
 X16 R23 3
 X16 R25 1
 X16 COUNT 1
 X17 R1 1
 X17 R6 1
 X17 R8 2
 X17 R9 1
 X17 R11 2
 X17 R12 3
 X17 R13 1
 X17 R15 3
 X17 R16 2
 X17 R17 2
 X17 R18 3
 X17 R19 2
 X17 R20 4
 X17 R21 3
 X17 R22 2
 X17 R23 3
 X17 R24 2
 X17 R26 2
 X17 R27 3
 X17 COUNT 1
 X18 R0 2
 X18 R2 2
 X18 R3 3
 X18 R5 1
 X18 R10 1
 X18 R12 2
 X18 R13 1
 X18 R15 2
 X18 R16 3
 X18 R17 1
 X18 R19 3
 X18 R20 2
 X18 R21 2
 X18 R22 3
 X18 R23 2
 X18 R24 4
 X18 R25 3
 X18 R26 2
 X18 R27 3
 X18 COUNT 1
 X19 R0 4
 X19 R1 3
 X19 R2 2
 X19 R3 3
 X19 R4 2
 X19 R6 2
 X19 R7 3
 X19 R9 1
 X19 R14 1
 X19 R16 2
 X19 R17 1
 X19 R19 2
 X19 R20 3
 X19 R21 1
 X19 R23 3
 X19 R24 2
 X19 R25 2
 X19 R26 3
 X19 R27 2
 X19 COUNT 1
 X20 R0 2
 X20 R1 2
 X20 R2 3
 X20 R3 2
 X20 R4 4
 X20 R5 3
 X20 R6 2
 X20 R7 3
 X20 R8 2
 X20 R10 2
 X20 R11 3
 X20 R13 1
 X20 R18 1
 X20 R20 2
 X20 R21 1
 X20 R23 2
 X20 R24 3
 X20 R25 1
 X20 R27 3
 X20 COUNT 1
 X21 R1 3
 X21 R2 3
 X21 R3 1
 X21 R4 3
 X21 R5 2
 X21 R6 2
 X21 R7 2
 X21 R8 2
 X21 R9 3
 X21 R10 4
 X21 R11 3
 X21 R12 2
 X21 R13 3
 X21 R14 2
 X21 R19 1
 X21 R20 1
 X21 R25 2
 X21 R26 2
 X21 R27 1
 X21 COUNT 1
 X22 R1 2
 X22 R2 2
 X22 R3 1
 X22 R5 3
 X22 R6 3
 X22 R7 1
 X22 R8 3
 X22 R9 2
 X22 R10 2
 X22 R11 2
 X22 R12 2
 X22 R13 3
 X22 R14 4
 X22 R15 3
 X22 R16 2
 X22 R17 3
 X22 R18 2
 X22 R23 1
 X22 R24 1
 X22 COUNT 1
 X23 R0 1
 X23 R5 2
 X23 R6 2
 X23 R7 1
 X23 R9 3
 X23 R10 3
 X23 R11 1
 X23 R12 3
 X23 R13 2
 X23 R14 2
 X23 R15 2
 X23 R16 2
 X23 R17 3
 X23 R18 4
 X23 R19 3
 X23 R20 2
 X23 R21 3
 X23 R22 2
 X23 R27 1
 X23 COUNT 1
 X24 R3 1
 X24 R4 1
 X24 R9 2
 X24 R10 2
 X24 R11 1
 X24 R13 3
 X24 R14 3
 X24 R15 1
 X24 R16 3
 X24 R17 2
 X24 R18 2
 X24 R19 2
 X24 R20 2
 X24 R21 3
 X24 R22 4
 X24 R23 3
 X24 R24 2
 X24 R25 3
 X24 R26 2
 X24 COUNT 1
 X25 R0 2
 X25 R1 3
 X25 R2 2
 X25 R7 1
 X25 R8 1
 X25 R13 2
 X25 R14 2
 X25 R15 1
 X25 R17 3
 X25 R18 3
 X25 R19 1
 X25 R20 3
 X25 R21 2
 X25 R22 2
 X25 R23 2
 X25 R24 2
 X25 R25 3
 X25 R26 4
 X25 R27 3
 X25 COUNT 1
 X26 R0 2
 X26 R1 3
 X26 R2 4
 X26 R3 3
 X26 R4 2
 X26 R5 3
 X26 R6 2
 X26 R11 1
 X26 R12 1
 X26 R17 2
 X26 R18 2
 X26 R19 1
 X26 R21 3
 X26 R22 3
 X26 R23 1
 X26 R24 3
 X26 R25 2
 X26 R26 2
 X26 R27 2
 X26 COUNT 1
 X27 R0 3
 X27 R1 2
 X27 R2 2
 X27 R3 2
 X27 R4 2
 X27 R5 3
 X27 R6 4
 X27 R7 3
 X27 R8 2
 X27 R9 3
 X27 R10 2
 X27 R15 1
 X27 R16 1
 X27 R21 2
 X27 R22 2
 X27 R23 1
 X27 R25 3
 X27 R26 3
 X27 R27 1
 X27 COUNT 1
 X28 R0 1
 X28 R3 2
 X28 R4 3
 X28 R5 1
 X28 R6 2
 X28 R7 2
 X28 R8 2
 X28 R9 3
 X28 R10 1
 X28 R11 2
 X28 R12 4
 X28 R14 2
 X28 R15 3
 X28 R16 2
 X28 R17 3
 X28 R18 2
 X28 R19 3
 X28 R21 2
 X28 R22 2
 X28 COUNT 1
 X29 R4 1
 X29 R7 2
 X29 R8 3
 X29 R9 1
 X29 R10 2
 X29 R11 2
 X29 R12 2
 X29 R13 3
 X29 R14 1
 X29 R15 2
 X29 R16 4
 X29 R18 2
 X29 R19 3
 X29 R20 2
 X29 R21 3
 X29 R22 2
 X29 R23 3
 X29 R25 2
 X29 R26 2
 X29 COUNT 1
 X30 R1 2
 X30 R2 2
 X30 R8 1
 X30 R11 2
 X30 R12 3
 X30 R13 1
 X30 R14 2
 X30 R15 2
 X30 R16 2
 X30 R17 3
 X30 R18 1
 X30 R19 2
 X30 R20 4
 X30 R22 2
 X30 R23 3
 X30 R24 2
 X30 R25 3
 X30 R26 2
 X30 R27 3
 X30 COUNT 1
 X31 R0 2
 X31 R1 3
 X31 R2 2
 X31 R3 3
 X31 R5 2
 X31 R6 2
 X31 R12 1
 X31 R15 2
 X31 R16 3
 X31 R17 1
 X31 R18 2
 X31 R19 2
 X31 R20 2
 X31 R21 3
 X31 R22 1
 X31 R23 2
 X31 R24 4
 X31 R26 2
 X31 R27 3
 X31 COUNT 1
 X32 R0 4
 X32 R2 2
 X32 R3 3
 X32 R4 2
 X32 R5 3
 X32 R6 2
 X32 R7 3
 X32 R9 2
 X32 R10 2
 X32 R16 1
 X32 R19 2
 X32 R20 3
 X32 R21 1
 X32 R22 2
 X32 R23 2
 X32 R24 2
 X32 R25 3
 X32 R26 1
 X32 R27 2
 X32 COUNT 1
 X33 R0 2
 X33 R1 3
 X33 R2 1
 X33 R3 2
 X33 R4 4
 X33 R6 2
 X33 R7 3
 X33 R8 2
 X33 R9 3
 X33 R10 2
 X33 R11 3
 X33 R13 2
 X33 R14 2
 X33 R20 1
 X33 R23 2
 X33 R24 3
 X33 R25 1
 X33 R26 2
 X33 R27 2
 X33 COUNT 1
 X34 R0 3
 X34 R1 1
 X34 R2 2
 X34 R3 2
 X34 R4 2
 X34 R5 3
 X34 R6 1
 X34 R7 2
 X34 R8 4
 X34 R10 2
 X34 R11 3
 X34 R12 2
 X34 R13 3
 X34 R14 2
 X34 R15 3
 X34 R17 2
 X34 R18 2
 X34 R24 1
 X34 R27 2
 X34 COUNT 1
 X35 R1 2
 X35 R2 1
 X35 R4 2
 X35 R5 2
 X35 R6 3
 X35 R7 1
 X35 R8 1
 X35 R9 2
 X35 R10 2
 X35 R11 3
 X35 R12 2
 X35 R13 3
 X35 R14 4
 X35 R16 2
 X35 R17 3
 X35 R18 2
 X35 R19 3
 X35 R20 2
 X35 R23 2
 X35 COUNT 1
 X36 R5 2
 X36 R6 1
 X36 R8 2
 X36 R9 2
 X36 R10 3
 X36 R11 1
 X36 R12 1
 X36 R13 2
 X36 R14 2
 X36 R15 3
 X36 R16 2
 X36 R17 3
 X36 R18 4
 X36 R20 2
 X36 R21 3
 X36 R22 2
 X36 R23 3
 X36 R24 2
 X36 R27 2
 X36 COUNT 1
 X37 R0 2
 X37 R3 2
 X37 R9 2
 X37 R10 1
 X37 R12 2
 X37 R13 2
 X37 R14 3
 X37 R15 1
 X37 R16 1
 X37 R17 2
 X37 R18 2
 X37 R19 3
 X37 R20 2
 X37 R21 3
 X37 R22 4
 X37 R24 2
 X37 R25 3
 X37 R26 2
 X37 R27 3
 X37 COUNT 1
 X38 R0 2
 X38 R1 3
 X38 R2 2
 X38 R3 3
 X38 R4 2
 X38 R7 2
 X38 R13 2
 X38 R14 1
 X38 R16 2
 X38 R17 2
 X38 R18 3
 X38 R19 1
 X38 R20 1
 X38 R21 2
 X38 R22 2
 X38 R23 3
 X38 R24 2
 X38 R25 3
 X38 R26 4
 X38 COUNT 1
 X39 R0 2
 X39 R1 3
 X39 R2 4
 X39 R4 2
 X39 R5 3
 X39 R6 2
 X39 R7 3
 X39 R8 2
 X39 R11 2
 X39 R17 2
 X39 R18 1
 X39 R20 2
 X39 R21 2
 X39 R22 3
 X39 R23 1
 X39 R24 1
 X39 R25 2
 X39 R26 2
 X39 R27 3
 X39 COUNT 1
 X40 R0 1
 X40 R1 2
 X40 R2 2
 X40 R3 3
 X40 R4 2
 X40 R5 3
 X40 R6 4
 X40 R8 2
 X40 R9 3
 X40 R10 2
 X40 R11 3
 X40 R12 2
 X40 R15 2
 X40 R21 2
 X40 R22 1
 X40 R24 2
 X40 R25 2
 X40 R26 3
 X40 R27 1
 X40 COUNT 1
 X41 R0 2
 X41 R1 2
 X41 R2 3
 X41 R3 1
 X41 R4 1
 X41 R5 2
 X41 R6 2
 X41 R7 3
 X41 R8 2
 X41 R9 3
 X41 R10 4
 X41 R12 2
 X41 R13 3
 X41 R14 2
 X41 R15 3
 X41 R16 2
 X41 R19 2
 X41 R25 2
 X41 R26 1
 X41 COUNT 1
 X42 R1 1
 X42 R2 2
 X42 R4 1
 X42 R5 3
 X42 R6 2
 X42 R7 2
 X42 R8 3
 X42 R9 2
 X42 R10 2
 X42 R11 1
 X42 R13 4
 X42 R14 3
 X42 R15 2
 X42 R16 3
 X42 R17 2
 X42 R18 3
 X42 R19 2
 X42 R20 2
 X42 R23 2
 X42 COUNT 1
 X43 R5 1
 X43 R6 2
 X43 R8 1
 X43 R9 3
 X43 R10 2
 X43 R11 2
 X43 R12 3
 X43 R13 2
 X43 R14 2
 X43 R15 1
 X43 R17 4
 X43 R18 3
 X43 R19 2
 X43 R20 3
 X43 R21 2
 X43 R22 3
 X43 R23 2
 X43 R24 2
 X43 R27 2
 X43 COUNT 1
 X44 R0 2
 X44 R3 2
 X44 R9 1
 X44 R10 2
 X44 R12 1
 X44 R13 3
 X44 R14 2
 X44 R15 2
 X44 R16 3
 X44 R17 2
 X44 R18 2
 X44 R19 1
 X44 R21 4
 X44 R22 3
 X44 R23 2
 X44 R24 3
 X44 R25 2
 X44 R26 3
 X44 R27 2
 X44 COUNT 1
 X45 R0 3
 X45 R1 2
 X45 R2 3
 X45 R3 2
 X45 R4 2
 X45 R7 2
 X45 R13 1
 X45 R14 2
 X45 R16 1
 X45 R17 3
 X45 R18 2
 X45 R19 2
 X45 R20 3
 X45 R21 2
 X45 R22 2
 X45 R23 1
 X45 R25 4
 X45 R26 3
 X45 R27 2
 X45 COUNT 1
 X46 R1 4
 X46 R2 3
 X46 R3 2
 X46 R4 3
 X46 R5 2
 X46 R6 3
 X46 R7 2
 X46 R8 2
 X46 R11 2
 X46 R17 1
 X46 R18 2
 X46 R20 1
 X46 R21 3
 X46 R22 2
 X46 R23 2
 X46 R24 3
 X46 R25 2
 X46 R26 2
 X46 R27 1
 X46 COUNT 1
 X47 R0 3
 X47 R1 2
 X47 R2 2
 X47 R3 1
 X47 R5 4
 X47 R6 3
 X47 R7 2
 X47 R8 3
 X47 R9 2
 X47 R10 3
 X47 R11 2
 X47 R12 2
 X47 R15 2
 X47 R21 1
 X47 R22 2
 X47 R24 1
 X47 R25 3
 X47 R26 2
 X47 R27 2
 X47 COUNT 1
 X48 R0 1
 X48 R1 3
 X48 R2 2
 X48 R3 2
 X48 R4 3
 X48 R5 2
 X48 R6 2
 X48 R7 1
 X48 R9 4
 X48 R10 3
 X48 R11 2
 X48 R12 3
 X48 R13 2
 X48 R14 3
 X48 R15 2
 X48 R16 2
 X48 R19 2
 X48 R25 1
 X48 R26 2
 X48 COUNT 1
 X49 R0 2
 X49 R3 1
 X49 R4 2
 X49 R5 2
 X49 R6 1
 X49 R7 3
 X49 R8 2
 X49 R9 1
 X49 R10 3
 X49 R11 2
 X49 R12 3
 X49 R13 2
 X49 R15 4
 X49 R16 3
 X49 R17 2
 X49 R18 3
 X49 R19 2
 X49 R21 2
 X49 R22 2
 X49 COUNT 1
 X50 R4 2
 X50 R7 1
 X50 R8 2
 X50 R9 2
 X50 R10 1
 X50 R11 3
 X50 R12 2
 X50 R13 1
 X50 R14 3
 X50 R15 2
 X50 R16 3
 X50 R17 2
 X50 R19 4
 X50 R20 3
 X50 R21 2
 X50 R22 3
 X50 R23 2
 X50 R25 2
 X50 R26 2
 X50 COUNT 1
 X51 R1 2
 X51 R2 2
 X51 R8 2
 X51 R11 1
 X51 R12 2
 X51 R13 2
 X51 R14 1
 X51 R15 3
 X51 R16 2
 X51 R17 1
 X51 R18 3
 X51 R19 2
 X51 R20 3
 X51 R21 2
 X51 R23 4
 X51 R24 3
 X51 R25 2
 X51 R26 3
 X51 R27 2
 X51 COUNT 1
 X52 R0 3
 X52 R1 2
 X52 R2 3
 X52 R3 2
 X52 R5 2
 X52 R6 2
 X52 R12 2
 X52 R15 1
 X52 R16 2
 X52 R17 2
 X52 R18 1
 X52 R19 3
 X52 R20 2
 X52 R21 1
 X52 R22 3
 X52 R23 2
 X52 R24 3
 X52 R25 2
 X52 R27 4
 X52 COUNT 1
 X53 R0 3
 X53 R1 2
 X53 R3 4
 X53 R4 3
 X53 R5 2
 X53 R6 3
 X53 R7 2
 X53 R9 2
 X53 R10 2
 X53 R16 2
 X53 R19 1
 X53 R20 2
 X53 R21 2
 X53 R22 1
 X53 R23 3
 X53 R24 2
 X53 R25 1
 X53 R26 3
 X53 R27 2
 X53 COUNT 1
 X54 R0 2
 X54 R1 1
 X54 R2 3
 X54 R3 2
 X54 R4 3
 X54 R5 2
 X54 R7 4
 X54 R8 3
 X54 R9 2
 X54 R10 3
 X54 R11 2
 X54 R13 2
 X54 R14 2
 X54 R20 2
 X54 R23 1
 X54 R24 2
 X54 R25 2
 X54 R26 1
 X54 R27 3
 X54 COUNT 1
 X55 R0 2
 X55 R1 2
 X55 R2 1
 X55 R3 3
 X55 R4 2
 X55 R5 1
 X55 R6 3
 X55 R7 2
 X55 R8 3
 X55 R9 2
 X55 R11 4
 X55 R12 3
 X55 R13 2
 X55 R14 3
 X55 R15 2
 X55 R17 2
 X55 R18 2
 X55 R24 2
 X55 R27 1
 X55 COUNT 1
 X56 R0 1
 X56 R3 2
 X56 R4 3
 X56 R5 2
 X56 R6 1
 X56 R7 2
 X56 R8 2
 X56 R9 1
 X56 R10 3
 X56 R11 2
 X56 R12 3
 X56 R13 2
 X56 R15 2
 X56 R16 1
 X56 R17 2
 X56 R18 4
 X56 R19 2
 X56 R21 3
 X56 R22 2
 X56 R23 1
 X56 R24 1
 X56 COUNT 1
 X57 R0 1
 X57 R4 1
 X57 R7 2
 X57 R8 3
 X57 R9 2
 X57 R10 1
 X57 R11 2
 X57 R12 2
 X57 R13 1
 X57 R14 3
 X57 R15 2
 X57 R16 3
 X57 R17 2
 X57 R19 2
 X57 R20 1
 X57 R21 2
 X57 R22 4
 X57 R23 2
 X57 R25 3
 X57 R26 2
 X57 R27 1
 X57 COUNT 1
 X58 R1 3
 X58 R2 2
 X58 R3 1
 X58 R4 1
 X58 R8 1
 X58 R11 2
 X58 R12 3
 X58 R13 2
 X58 R14 1
 X58 R15 2
 X58 R16 2
 X58 R17 1
 X58 R18 3
 X58 R19 2
 X58 R20 3
 X58 R21 2
 X58 R23 2
 X58 R24 1
 X58 R25 2
 X58 R26 4
 X58 R27 2
 X58 COUNT 1
 X59 R0 1
 X59 R1 2
 X59 R2 4
 X59 R3 2
 X59 R5 3
 X59 R6 2
 X59 R7 1
 X59 R8 1
 X59 R12 1
 X59 R15 2
 X59 R16 3
 X59 R17 2
 X59 R18 1
 X59 R19 2
 X59 R20 2
 X59 R21 1
 X59 R22 3
 X59 R23 2
 X59 R24 3
 X59 R25 2
 X59 R27 2
 X59 COUNT 1
 X60 R0 3
 X60 R1 2
 X60 R3 2
 X60 R4 1
 X60 R5 2
 X60 R6 4
 X60 R7 2
 X60 R9 3
 X60 R10 2
 X60 R11 1
 X60 R12 1
 X60 R16 1
 X60 R19 2
 X60 R20 3
 X60 R21 2
 X60 R22 1
 X60 R23 2
 X60 R24 2
 X60 R25 1
 X60 R26 3
 X60 R27 2
 X60 COUNT 1
 X61 R0 2
 X61 R1 1
 X61 R2 3
 X61 R3 2
 X61 R4 3
 X61 R5 2
 X61 R7 2
 X61 R8 1
 X61 R9 2
 X61 R10 4
 X61 R11 2
 X61 R13 3
 X61 R14 2
 X61 R15 1
 X61 R16 1
 X61 R20 1
 X61 R23 2
 X61 R24 3
 X61 R25 2
 X61 R26 1
 X61 R27 2
 X61 COUNT 1
 X62 R0 3
 X62 R1 2
 X62 R2 1
 X62 R3 2
 X62 R4 2
 X62 R5 1
 X62 R6 3
 X62 R7 2
 X62 R8 3
 X62 R9 2
 X62 R11 2
 X62 R12 1
 X62 R13 2
 X62 R14 4
 X62 R15 2
 X62 R17 3
 X62 R18 2
 X62 R19 1
 X62 R20 1
 X62 R24 1
 X62 R27 2
 X62 COUNT 1
 X63 R1 2
 X63 R2 1
 X63 R4 1
 X63 R5 2
 X63 R6 3
 X63 R7 2
 X63 R8 3
 X63 R9 2
 X63 R10 2
 X63 R11 1
 X63 R13 2
 X63 R14 3
 X63 R15 2
 X63 R16 4
 X63 R17 2
 X63 R18 1
 X63 R19 2
 X63 R20 2
 X63 R21 1
 X63 R23 3
 X63 R26 1
 X63 COUNT 1
 X64 R2 1
 X64 R5 2
 X64 R6 1
 X64 R8 1
 X64 R9 2
 X64 R10 3
 X64 R11 2
 X64 R12 3
 X64 R13 2
 X64 R14 2
 X64 R15 1
 X64 R17 2
 X64 R18 3
 X64 R19 2
 X64 R20 4
 X64 R21 2
 X64 R22 1
 X64 R23 2
 X64 R24 2
 X64 R25 1
 X64 R27 3
 X64 COUNT 1
 X65 R0 2
 X65 R1 1
 X65 R3 3
 X65 R6 1
 X65 R9 2
 X65 R10 1
 X65 R12 1
 X65 R13 2
 X65 R14 3
 X65 R15 2
 X65 R16 3
 X65 R17 2
 X65 R18 2
 X65 R19 1
 X65 R21 2
 X65 R22 3
 X65 R23 2
 X65 R24 4
 X65 R25 2
 X65 R26 1
 X65 R27 2
 X65 COUNT 1
 X66 R0 4
 X66 R1 2
 X66 R2 1
 X66 R3 2
 X66 R4 2
 X66 R5 1
 X66 R7 3
 X66 R10 1
 X66 R13 2
 X66 R14 1
 X66 R16 1
 X66 R17 2
 X66 R18 3
 X66 R19 2
 X66 R20 3
 X66 R21 2
 X66 R22 2
 X66 R23 1
 X66 R25 2
 X66 R26 3
 X66 R27 2
 X66 COUNT 1
 X67 R1 2
 X67 R2 3
 X67 R3 2
 X67 R4 4
 X67 R5 2
 X67 R6 1
 X67 R7 2
 X67 R8 2
 X67 R9 1
 X67 R11 3
 X67 R14 1
 X67 R17 2
 X67 R18 1
 X67 R20 1
 X67 R21 2
 X67 R22 3
 X67 R23 2
 X67 R24 3
 X67 R25 2
 X67 R26 2
 X67 R27 1
 X67 COUNT 1
 X68 R0 3
 X68 R1 2
 X68 R2 2
 X68 R3 1
 X68 R5 2
 X68 R6 3
 X68 R7 2
 X68 R8 4
 X68 R9 2
 X68 R10 1
 X68 R11 2
 X68 R12 2
 X68 R13 1
 X68 R15 3
 X68 R18 1
 X68 R21 2
 X68 R22 1
 X68 R24 1
 X68 R25 2
 X68 R26 3
 X68 R27 2
 X68 COUNT 1
 X69 R0 1
 X69 R1 2
 X69 R2 3
 X69 R3 2
 X69 R4 3
 X69 R5 2
 X69 R6 2
 X69 R7 1
 X69 R9 2
 X69 R10 3
 X69 R11 2
 X69 R12 4
 X69 R13 2
 X69 R14 1
 X69 R15 2
 X69 R16 2
 X69 R17 1
 X69 R19 3
 X69 R22 1
 X69 R25 2
 X69 R26 1
 X69 COUNT 1
 X70 R1 1
 X70 R2 2
 X70 R4 2
 X70 R5 3
 X70 R6 2
 X70 R7 1
 X70 R8 1
 X70 R9 2
 X70 R10 2
 X70 R11 3
 X70 R12 2
 X70 R13 3
 X70 R14 2
 X70 R16 2
 X70 R17 1
 X70 R18 2
 X70 R19 4
 X70 R20 3
 X70 R22 1
 X70 R23 2
 X70 R25 1
 X70 COUNT 1
 X71 R1 1
 X71 R5 1
 X71 R6 2
 X71 R8 2
 X71 R9 3
 X71 R10 2
 X71 R11 1
 X71 R12 1
 X71 R13 2
 X71 R14 2
 X71 R15 3
 X71 R16 2
 X71 R17 3
 X71 R18 2
 X71 R20 2
 X71 R21 1
 X71 R22 2
 X71 R23 4
 X71 R24 3
 X71 R26 1
 X71 R27 2
 X71 COUNT 1
 X72 R0 3
 X72 R2 1
 X72 R3 2
 X72 R5 1
 X72 R9 1
 X72 R10 2
 X72 R12 2
 X72 R13 3
 X72 R14 2
 X72 R15 1
 X72 R16 1
 X72 R17 2
 X72 R18 2
 X72 R19 3
 X72 R20 2
 X72 R21 3
 X72 R22 2
 X72 R24 2
 X72 R25 1
 X72 R26 2
 X72 R27 4
 X72 COUNT 1
 X73 R0 2
 X73 R1 1
 X73 R2 2
 X73 R3 4
 X73 R4 3
 X73 R6 1
 X73 R7 2
 X73 R9 1
 X73 R13 1
 X73 R14 2
 X73 R16 2
 X73 R17 3
 X73 R18 2
 X73 R19 1
 X73 R20 1
 X73 R21 2
 X73 R22 2
 X73 R23 3
 X73 R24 2
 X73 R25 3
 X73 R26 2
 X73 COUNT 1
 X74 R0 2
 X74 R1 3
 X74 R2 2
 X74 R4 2
 X74 R5 1
 X74 R6 2
 X74 R7 4
 X74 R8 3
 X74 R10 1
 X74 R11 2
 X74 R13 1
 X74 R17 1
 X74 R18 2
 X74 R20 2
 X74 R21 3
 X74 R22 2
 X74 R23 1
 X74 R24 1
 X74 R25 2
 X74 R26 2
 X74 R27 3
 X74 COUNT 1
 X75 R0 1
 X75 R1 2
 X75 R2 2
 X75 R3 3
 X75 R4 2
 X75 R5 3
 X75 R6 2
 X75 R8 2
 X75 R9 1
 X75 R10 2
 X75 R11 4
 X75 R12 3
 X75 R14 1
 X75 R15 2
 X75 R17 1
 X75 R21 1
 X75 R22 2
 X75 R24 2
 X75 R25 3
 X75 R26 2
 X75 R27 1
 X75 COUNT 1
 X76 R0 2
 X76 R1 3
 X76 R2 2
 X76 R3 1
 X76 R4 1
 X76 R5 2
 X76 R6 2
 X76 R7 3
 X76 R8 2
 X76 R9 3
 X76 R10 2
 X76 R12 2
 X76 R13 1
 X76 R14 2
 X76 R15 4
 X76 R16 3
 X76 R18 1
 X76 R19 2
 X76 R21 1
 X76 R25 1
 X76 R26 2
 X76 COUNT 1
 X77 R0 2
 X77 R3 1
 X77 R4 2
 X77 R5 1
 X77 R6 2
 X77 R7 3
 X77 R8 2
 X77 R9 3
 X77 R10 1
 X77 R11 2
 X77 R12 2
 X77 R14 2
 X77 R15 3
 X77 R16 2
 X77 R17 4
 X77 R18 2
 X77 R19 1
 X77 R20 1
 X77 R21 2
 X77 R22 3
 X77 R27 1
 X77 COUNT 1
 X78 R3 1
 X78 R4 2
 X78 R7 1
 X78 R8 2
 X78 R9 1
 X78 R10 2
 X78 R11 3
 X78 R12 2
 X78 R13 3
 X78 R14 1
 X78 R15 2
 X78 R16 2
 X78 R18 2
 X78 R19 3
 X78 R20 2
 X78 R21 4
 X78 R22 2
 X78 R23 1
 X78 R24 1
 X78 R25 2
 X78 R26 3
 X78 COUNT 1
 X79 R0 1
 X79 R1 2
 X79 R2 3
 X79 R7 1
 X79 R8 2
 X79 R11 1
 X79 R12 2
 X79 R13 1
 X79 R14 2
 X79 R15 3
 X79 R16 2
 X79 R17 3
 X79 R18 1
 X79 R19 2
 X79 R20 2
 X79 R22 2
 X79 R23 3
 X79 R24 2
 X79 R25 4
 X79 R26 2
 X79 R27 1
 X79 COUNT 1
 X80 R0 2
 X80 R1 4
 X80 R2 2
 X80 R3 1
 X80 R4 1
 X80 R5 2
 X80 R6 3
 X80 R11 1
 X80 R12 2
 X80 R15 1
 X80 R16 2
 X80 R17 1
 X80 R18 2
 X80 R19 3
 X80 R20 2
 X80 R21 3
 X80 R22 1
 X80 R23 2
 X80 R24 2
 X80 R26 2
 X80 R27 3
 X80 COUNT 1
 X81 R0 2
 X81 R2 2
 X81 R3 3
 X81 R4 2
 X81 R5 4
 X81 R6 2
 X81 R7 1
 X81 R8 1
 X81 R9 2
 X81 R10 3
 X81 R15 1
 X81 R16 2
 X81 R19 1
 X81 R20 2
 X81 R21 1
 X81 R22 2
 X81 R23 3
 X81 R24 2
 X81 R25 3
 X81 R26 1
 X81 R27 2
 X81 COUNT 1
 X82 R0 2
 X82 R1 3
 X82 R2 1
 X82 R3 2
 X82 R4 2
 X82 R6 2
 X82 R7 3
 X82 R8 2
 X82 R9 4
 X82 R10 2
 X82 R11 1
 X82 R12 1
 X82 R13 2
 X82 R14 3
 X82 R19 1
 X82 R20 2
 X82 R23 1
 X82 R24 2
 X82 R25 1
 X82 R26 2
 X82 R27 3
 X82 COUNT 1
 X83 R0 2
 X83 R1 1
 X83 R2 2
 X83 R3 3
 X83 R4 2
 X83 R5 3
 X83 R6 1
 X83 R7 2
 X83 R8 2
 X83 R10 2
 X83 R11 3
 X83 R12 2
 X83 R13 4
 X83 R14 2
 X83 R15 1
 X83 R16 1
 X83 R17 2
 X83 R18 3
 X83 R23 1
 X83 R24 2
 X83 R27 1
 X83 COUNT 1
 X84 R0 1
 X84 R3 2
 X84 R4 1
 X84 R9 2
 X84 R10 3
 X84 R11 1
 X84 R12 1
 X84 R13 4
 X84 R14 2
 X84 R15 2
 X84 R16 3
 X84 R18 2
 X84 R19 2
 X84 R20 2
 X84 R21 3
 X84 R22 1
 X84 R23 2
 X84 R24 3
 X84 R25 1
 X84 R26 2
 X84 R27 2
 X84 COUNT 1
 X85 R0 3
 X85 R1 1
 X85 R2 2
 X85 R3 2
 X85 R4 1
 X85 R7 2
 X85 R8 1
 X85 R13 2
 X85 R14 3
 X85 R15 1
 X85 R16 1
 X85 R17 4
 X85 R18 2
 X85 R19 2
 X85 R20 3
 X85 R22 2
 X85 R23 2
 X85 R24 2
 X85 R25 3
 X85 R26 1
 X85 R27 2
 X85 COUNT 1
 X86 R0 2
 X86 R1 3
 X86 R2 1
 X86 R3 2
 X86 R4 3
 X86 R5 1
 X86 R6 2
 X86 R7 2
 X86 R8 1
 X86 R11 2
 X86 R12 1
 X86 R17 2
 X86 R18 3
 X86 R19 1
 X86 R20 1
 X86 R21 4
 X86 R22 2
 X86 R23 2
 X86 R24 3
 X86 R26 2
 X86 R27 2
 X86 COUNT 1
 X87 R0 3
 X87 R2 2
 X87 R3 2
 X87 R4 2
 X87 R5 3
 X87 R6 1
 X87 R7 2
 X87 R8 3
 X87 R9 1
 X87 R10 2
 X87 R11 2
 X87 R12 1
 X87 R15 2
 X87 R16 1
 X87 R21 2
 X87 R22 3
 X87 R23 1
 X87 R24 1
 X87 R25 4
 X87 R26 2
 X87 R27 2
 X87 COUNT 1
 X88 R0 1
 X88 R1 4
 X88 R2 2
 X88 R3 2
 X88 R4 3
 X88 R6 2
 X88 R7 2
 X88 R8 2
 X88 R9 3
 X88 R10 1
 X88 R11 2
 X88 R12 3
 X88 R13 1
 X88 R14 2
 X88 R15 2
 X88 R16 1
 X88 R19 2
 X88 R20 1
 X88 R25 2
 X88 R26 3
 X88 R27 1
 X88 COUNT 1
 X89 R1 2
 X89 R2 3
 X89 R3 1
 X89 R4 1
 X89 R5 4
 X89 R6 2
 X89 R7 2
 X89 R8 3
 X89 R10 2
 X89 R11 2
 X89 R12 2
 X89 R13 3
 X89 R14 1
 X89 R15 2
 X89 R16 3
 X89 R17 1
 X89 R18 2
 X89 R19 2
 X89 R20 1
 X89 R23 2
 X89 R24 1
 X89 COUNT 1
 X90 R0 1
 X90 R5 2
 X90 R6 3
 X90 R7 1
 X90 R8 1
 X90 R9 4
 X90 R10 2
 X90 R11 2
 X90 R12 3
 X90 R14 2
 X90 R15 2
 X90 R16 2
 X90 R17 3
 X90 R18 1
 X90 R19 2
 X90 R20 3
 X90 R21 1
 X90 R22 2
 X90 R23 2
 X90 R24 1
 X90 R27 2
 X90 COUNT 1
 X91 R1 2
 X91 R2 1
 X91 R6 1
 X91 R8 3
 X91 R9 1
 X91 R11 2
 X91 R12 2
 X91 R13 2
 X91 R14 1
 X91 R15 4
 X91 R16 2
 X91 R17 2
 X91 R18 3
 X91 R20 1
 X91 R21 2
 X91 R22 2
 X91 R23 3
 X91 R24 2
 X91 R25 2
 X91 R26 3
 X91 R27 1
 X91 COUNT 1
 X92 R0 2
 X92 R1 2
 X92 R2 3
 X92 R3 1
 X92 R5 2
 X92 R6 1
 X92 R10 1
 X92 R12 3
 X92 R13 1
 X92 R15 2
 X92 R16 2
 X92 R17 2
 X92 R18 1
 X92 R19 4
 X92 R20 2
 X92 R21 2
 X92 R22 3
 X92 R24 1
 X92 R25 2
 X92 R26 2
 X92 R27 3
 X92 COUNT 1
 X93 R0 1
 X93 R1 2
 X93 R2 2
 X93 R3 3
 X93 R4 2
 X93 R5 2
 X93 R6 3
 X93 R7 1
 X93 R9 2
 X93 R10 1
 X93 R14 1
 X93 R16 3
 X93 R17 1
 X93 R19 2
 X93 R20 2
 X93 R21 2
 X93 R22 1
 X93 R23 4
 X93 R24 2
 X93 R25 2
 X93 R26 3
 X93 COUNT 1
 X94 R0 2
 X94 R1 2
 X94 R2 3
 X94 R4 1
 X94 R5 2
 X94 R6 2
 X94 R7 3
 X94 R8 2
 X94 R9 2
 X94 R10 3
 X94 R11 1
 X94 R13 2
 X94 R14 1
 X94 R18 1
 X94 R20 3
 X94 R21 1
 X94 R23 2
 X94 R24 2
 X94 R25 2
 X94 R26 1
 X94 R27 4
 X94 COUNT 1
 X95 R0 2
 X95 R1 2
 X95 R2 1
 X95 R3 4
 X95 R4 2
 X95 R5 2
 X95 R6 3
 X95 R8 1
 X95 R9 2
 X95 R10 2
 X95 R11 3
 X95 R12 2
 X95 R13 2
 X95 R14 3
 X95 R15 1
 X95 R17 2
 X95 R18 1
 X95 R22 1
 X95 R24 3
 X95 R25 1
 X95 R27 2
 X95 COUNT 1
 X96 R0 3
 X96 R1 1
 X96 R3 2
 X96 R4 2
 X96 R5 2
 X96 R6 1
 X96 R7 4
 X96 R8 2
 X96 R9 2
 X96 R10 3
 X96 R12 1
 X96 R13 2
 X96 R14 2
 X96 R15 3
 X96 R16 2
 X96 R17 2
 X96 R18 3
 X96 R19 1
 X96 R21 2
 X96 R22 1
 X96 R26 1
 X96 COUNT 1
 X97 R2 1
 X97 R4 3
 X97 R5 1
 X97 R7 2
 X97 R8 2
 X97 R9 2
 X97 R10 1
 X97 R11 4
 X97 R12 2
 X97 R13 2
 X97 R14 3
 X97 R16 1
 X97 R17 2
 X97 R18 2
 X97 R19 3
 X97 R20 2
 X97 R21 2
 X97 R22 3
 X97 R23 1
 X97 R25 2
 X97 R26 1
 X97 COUNT 1
 X98 R1 1
 X98 R2 2
 X98 R5 1
 X98 R8 2
 X98 R10 1
 X98 R11 3
 X98 R12 4
 X98 R13 1
 X98 R14 2
 X98 R15 2
 X98 R17 3
 X98 R18 2
 X98 R19 2
 X98 R20 3
 X98 R21 2
 X98 R22 2
 X98 R23 1
 X98 R24 1
 X98 R25 3
 X98 R26 2
 X98 R27 2
 X98 COUNT 1
 X99 R0 1
 X99 R1 3
 X99 R2 2
 X99 R3 2
 X99 R5 1
 X99 R6 2
 X99 R9 1
 X99 R12 2
 X99 R14 1
 X99 R15 3
 X99 R16 4
 X99 R17 1
 X99 R18 2
 X99 R19 2
 X99 R21 3
 X99 R22 2
 X99 R23 2
 X99 R24 3
 X99 R25 2
 X99 R26 2
 X99 R27 1
 X99 COUNT 1
 X100 R0 3
 X100 R1 2
 X100 R2 2
 X100 R3 1
 X100 R4 1
 X100 R5 3
 X100 R6 2
 X100 R7 2
 X100 R9 1
 X100 R10 2
 X100 R13 1
 X100 R16 2
 X100 R18 1
 X100 R19 3
 X100 R20 4
 X100 R21 1
 X100 R22 2
 X100 R23 2
 X100 R25 3
 X100 R26 2
 X100 R27 2
 X100 COUNT 1
 X101 R1 3
 X101 R2 2
 X101 R3 2
 X101 R4 3
 X101 R5 2
 X101 R6 2
 X101 R7 1
 X101 R8 1
 X101 R9 3
 X101 R10 2
 X101 R11 2
 X101 R13 1
 X101 R14 2
 X101 R17 1
 X101 R20 2
 X101 R22 1
 X101 R23 3
 X101 R24 4
 X101 R25 1
 X101 R26 2
 X101 R27 2
 X101 COUNT 1
 X102 R0 4
 X102 R1 1
 X102 R2 2
 X102 R3 2
 X102 R5 3
 X102 R6 2
 X102 R7 2
 X102 R8 3
 X102 R9 2
 X102 R10 2
 X102 R11 1
 X102 R12 1
 X102 R13 3
 X102 R14 2
 X102 R15 2
 X102 R17 1
 X102 R18 2
 X102 R21 1
 X102 R24 2
 X102 R26 1
 X102 R27 3
 X102 COUNT 1
 X103 R0 2
 X103 R2 1
 X103 R3 3
 X103 R4 4
 X103 R5 1
 X103 R6 2
 X103 R7 2
 X103 R9 3
 X103 R10 2
 X103 R11 2
 X103 R12 3
 X103 R13 2
 X103 R14 2
 X103 R15 1
 X103 R16 1
 X103 R17 3
 X103 R18 2
 X103 R19 2
 X103 R21 1
 X103 R22 2
 X103 R25 1
 X103 COUNT 1
 X104 R1 1
 X104 R4 2
 X104 R6 1
 X104 R7 3
 X104 R8 4
 X104 R9 1
 X104 R10 2
 X104 R11 2
 X104 R13 3
 X104 R14 2
 X104 R15 2
 X104 R16 3
 X104 R17 2
 X104 R18 2
 X104 R19 1
 X104 R20 1
 X104 R21 3
 X104 R22 2
 X104 R23 2
 X104 R25 1
 X104 R26 2
 X104 COUNT 1
 X105 R0 2
 X105 R3 1
 X105 R7 1
 X105 R8 1
 X105 R9 3
 X105 R10 2
 X105 R12 2
 X105 R13 2
 X105 R14 4
 X105 R15 1
 X105 R16 2
 X105 R17 2
 X105 R19 3
 X105 R20 2
 X105 R21 1
 X105 R22 3
 X105 R23 2
 X105 R24 2
 X105 R25 2
 X105 R26 1
 X105 R27 3
 X105 COUNT 1
 X106 R0 2
 X106 R1 2
 X106 R2 1
 X106 R3 3
 X106 R4 2
 X106 R7 1
 X106 R11 1
 X106 R12 1
 X106 R13 3
 X106 R14 2
 X106 R16 2
 X106 R17 2
 X106 R18 4
 X106 R19 1
 X106 R20 2
 X106 R21 2
 X106 R23 3
 X106 R24 2
 X106 R25 1
 X106 R26 3
 X106 R27 2
 X106 COUNT 1
 X107 R0 2
 X107 R1 1
 X107 R2 3
 X107 R3 2
 X107 R4 2
 X107 R5 2
 X107 R6 1
 X107 R7 3
 X107 R8 2
 X107 R11 1
 X107 R15 1
 X107 R16 1
 X107 R17 3
 X107 R18 2
 X107 R20 2
 X107 R21 2
 X107 R22 4
 X107 R23 1
 X107 R24 2
 X107 R25 2
 X107 R27 3
 X107 COUNT 1
 X108 R0 2
 X108 R1 2
 X108 R3 3
 X108 R4 2
 X108 R5 1
 X108 R6 3
 X108 R7 2
 X108 R8 2
 X108 R9 2
 X108 R10 1
 X108 R11 3
 X108 R12 2
 X108 R15 1
 X108 R19 1
 X108 R20 1
 X108 R21 3
 X108 R22 2
 X108 R24 2
 X108 R25 2
 X108 R26 4
 X108 R27 1
 X108 COUNT 1
 X109 R0 2
 X109 R1 2
 X109 R2 4
 X109 R3 1
 X109 R4 2
 X109 R5 2
 X109 R7 3
 X109 R8 2
 X109 R9 1
 X109 R10 3
 X109 R11 2
 X109 R12 2
 X109 R13 2
 X109 R14 1
 X109 R15 3
 X109 R16 2
 X109 R19 1
 X109 R23 1
 X109 R24 1
 X109 R25 3
 X109 R26 2
 X109 COUNT 1
 X110 R0 1
 X110 R1 3
 X110 R2 2
 X110 R4 2
 X110 R5 2
 X110 R6 4
 X110 R7 1
 X110 R8 2
 X110 R9 2
 X110 R11 3
 X110 R12 2
 X110 R13 1
 X110 R14 3
 X110 R15 2
 X110 R16 2
 X110 R17 2
 X110 R18 1
 X110 R19 3
 X110 R20 2
 X110 R23 1
 X110 R27 1
 X110 COUNT 1
 X111 R3 1
 X111 R4 1
 X111 R5 3
 X111 R6 2
 X111 R8 2
 X111 R9 2
 X111 R10 4
 X111 R11 1
 X111 R12 2
 X111 R13 2
 X111 R15 3
 X111 R16 2
 X111 R17 1
 X111 R18 3
 X111 R19 2
 X111 R20 2
 X111 R21 2
 X111 R22 1
 X111 R23 3
 X111 R24 2
 X111 R27 1
 X111 COUNT 1
 X112 R0 1
 X112 R1 3
 X112 R2 3
 X112 R4 1
 X112 R5 2
 X112 R6 2
 X112 R11 1
 X112 R12 1
 X112 R17 3
 X112 R18 2
 X112 R19 2
 X112 R20 3
 X112 R21 3
 X112 R22 4
 X112 R23 2
 X112 R24 2
 X112 R25 2
 X112 R26 2
 X112 R27 3
 X112 COUNT 1
 X113 R0 2
 X113 R1 2
 X113 R2 2
 X113 R3 3
 X113 R4 1
 X113 R5 3
 X113 R6 3
 X113 R8 1
 X113 R9 2
 X113 R10 2
 X113 R15 1
 X113 R16 1
 X113 R21 3
 X113 R22 2
 X113 R23 2
 X113 R24 3
 X113 R25 3
 X113 R26 4
 X113 R27 2
 X113 COUNT 1
 X114 R0 3
 X114 R1 3
 X114 R2 4
 X114 R3 2
 X114 R4 2
 X114 R5 2
 X114 R6 2
 X114 R7 3
 X114 R8 1
 X114 R9 3
 X114 R10 3
 X114 R12 1
 X114 R13 2
 X114 R14 2
 X114 R19 1
 X114 R20 1
 X114 R25 3
 X114 R26 2
 X114 R27 2
 X114 COUNT 1
 X115 R1 3
 X115 R2 2
 X115 R3 2
 X115 R4 3
 X115 R5 3
 X115 R6 4
 X115 R7 2
 X115 R8 2
 X115 R9 2
 X115 R10 2
 X115 R11 3
 X115 R12 1
 X115 R13 3
 X115 R14 3
 X115 R16 1
 X115 R17 2
 X115 R18 2
 X115 R23 1
 X115 R24 1
 X115 COUNT 1
 X116 R0 1
 X116 R5 3
 X116 R6 2
 X116 R7 2
 X116 R8 3
 X116 R9 3
 X116 R10 4
 X116 R11 2
 X116 R12 2
 X116 R13 2
 X116 R14 2
 X116 R15 3
 X116 R16 1
 X116 R17 3
 X116 R18 3
 X116 R20 1
 X116 R21 2
 X116 R22 2
 X116 R27 1
 X116 COUNT 1
 X117 R3 1
 X117 R4 1
 X117 R9 3
 X117 R10 2
 X117 R11 2
 X117 R12 3
 X117 R13 3
 X117 R14 4
 X117 R15 2
 X117 R16 2
 X117 R17 2
 X117 R18 2
 X117 R19 3
 X117 R20 1
 X117 R21 3
 X117 R22 3
 X117 R24 1
 X117 R25 2
 X117 R26 2
 X117 COUNT 1
 X118 R0 1
 X118 R1 2
 X118 R2 2
 X118 R7 1
 X118 R8 1
 X118 R13 3
 X118 R14 2
 X118 R15 2
 X118 R16 3
 X118 R17 3
 X118 R18 4
 X118 R19 2
 X118 R20 2
 X118 R21 2
 X118 R22 2
 X118 R23 3
 X118 R24 1
 X118 R25 3
 X118 R26 3
 X118 COUNT 1
 X119 R0 3
 X119 R2 1
 X119 R3 3
 X119 R4 2
 X119 R6 1
 X119 R7 2
 X119 R9 1
 X119 R14 1
 X119 R16 2
 X119 R17 2
 X119 R19 3
 X119 R20 4
 X119 R21 2
 X119 R22 3
 X119 R23 3
 X119 R24 2
 X119 R25 3
 X119 R26 2
 X119 R27 2
 X119 COUNT 1
 X120 R0 2
 X120 R1 3
 X120 R2 2
 X120 R3 2
 X120 R4 3
 X120 R6 1
 X120 R7 3
 X120 R8 2
 X120 R10 1
 X120 R11 2
 X120 R13 1
 X120 R18 1
 X120 R20 2
 X120 R21 2
 X120 R23 3
 X120 R24 4
 X120 R25 2
 X120 R26 3
 X120 R27 3
 X120 COUNT 1
 X121 R0 4
 X121 R1 2
 X121 R2 3
 X121 R3 3
 X121 R4 2
 X121 R5 3
 X121 R6 2
 X121 R7 2
 X121 R8 3
 X121 R10 1
 X121 R11 3
 X121 R12 2
 X121 R14 1
 X121 R15 2
 X121 R17 1
 X121 R22 1
 X121 R24 2
 X121 R25 2
 X121 R27 3
 X121 COUNT 1
 X122 R0 2
 X122 R1 2
 X122 R3 3
 X122 R4 4
 X122 R5 2
 X122 R6 3
 X122 R7 3
 X122 R8 2
 X122 R9 3
 X122 R10 2
 X122 R11 2
 X122 R12 3
 X122 R14 1
 X122 R15 3
 X122 R16 2
 X122 R18 1
 X122 R19 2
 X122 R21 1
 X122 R26 1
 X122 COUNT 1
 X123 R2 1
 X123 R4 2
 X123 R5 2
 X123 R7 3
 X123 R8 4
 X123 R9 2
 X123 R10 3
 X123 R11 3
 X123 R12 2
 X123 R13 3
 X123 R14 2
 X123 R15 2
 X123 R16 3
 X123 R18 1
 X123 R19 3
 X123 R20 2
 X123 R22 1
 X123 R23 2
 X123 R25 1
 X123 COUNT 1
 X124 R1 1
 X124 R6 1
 X124 R8 2
 X124 R9 2
 X124 R11 3
 X124 R12 4
 X124 R13 2
 X124 R14 3
 X124 R15 3
 X124 R16 2
 X124 R17 3
 X124 R18 2
 X124 R19 2
 X124 R20 3
 X124 R22 1
 X124 R23 3
 X124 R24 2
 X124 R26 1
 X124 R27 2
 X124 COUNT 1
 X125 R0 2
 X125 R2 1
 X125 R3 2
 X125 R5 1
 X125 R10 1
 X125 R12 2
 X125 R13 2
 X125 R15 3
 X125 R16 4
 X125 R17 2
 X125 R18 3
 X125 R19 3
 X125 R20 2
 X125 R21 3
 X125 R22 2
 X125 R23 2
 X125 R24 3
 X125 R26 1
 X125 R27 3
 X125 COUNT 1
 X126 R0 3
 X126 R1 1
 X126 R3 3
 X126 R4 2
 X126 R5 1
 X126 R7 2
 X126 R10 1
 X126 R13 1
 X126 R16 3
 X126 R18 2
 X126 R19 2
 X126 R20 3
 X126 R21 3
 X126 R22 2
 X126 R23 4
 X126 R24 2
 X126 R25 2
 X126 R26 3
 X126 R27 2
 X126 COUNT 1
 X127 R0 2
 X127 R1 2
 X127 R2 3
 X127 R3 2
 X127 R4 3
 X127 R5 1
 X127 R7 3
 X127 R8 2
 X127 R9 1
 X127 R11 2
 X127 R14 1
 X127 R17 1
 X127 R20 3
 X127 R22 2
 X127 R23 2
 X127 R24 3
 X127 R25 3
 X127 R26 2
 X127 R27 4
 X127 COUNT 1
 X128 R0 3
 X128 R1 3
 X128 R2 2
 X128 R3 4
 X128 R4 2
 X128 R5 2
 X128 R6 3
 X128 R7 2
 X128 R8 3
 X128 R9 1
 X128 R11 3
 X128 R12 2
 X128 R13 1
 X128 R15 2
 X128 R18 1
 X128 R21 1
 X128 R24 3
 X128 R26 2
 X128 R27 2
 X128 COUNT 1
 X129 R0 3
 X129 R2 2
 X129 R3 2
 X129 R4 3
 X129 R5 3
 X129 R6 2
 X129 R7 4
 X129 R8 2
 X129 R9 2
 X129 R10 3
 X129 R11 2
 X129 R12 3
 X129 R13 1
 X129 R15 3
 X129 R16 2
 X129 R17 1
 X129 R19 2
 X129 R22 1
 X129 R25 1
 X129 COUNT 1
 X130 R1 1
 X130 R4 3
 X130 R6 2
 X130 R7 2
 X130 R8 3
 X130 R9 3
 X130 R10 2
 X130 R11 4
 X130 R12 2
 X130 R13 2
 X130 R14 3
 X130 R15 2
 X130 R16 3
 X130 R17 1
 X130 R19 3
 X130 R20 2
 X130 R21 1
 X130 R23 2
 X130 R26 1
 X130 COUNT 1
 X131 R2 1
 X131 R5 1
 X131 R8 3
 X131 R10 2
 X131 R11 2
 X131 R12 3
 X131 R13 3
 X131 R14 2
 X131 R15 4
 X131 R16 2
 X131 R17 2
 X131 R18 3
 X131 R19 2
 X131 R20 3
 X131 R21 1
 X131 R23 3
 X131 R24 2
 X131 R25 1
 X131 R27 2
 X131 COUNT 1
 X132 R0 2
 X132 R1 1
 X132 R3 2
 X132 R6 1
 X132 R9 1
 X132 R12 3
 X132 R14 2
 X132 R15 2
 X132 R16 3
 X132 R17 3
 X132 R18 2
 X132 R19 4
 X132 R20 2
 X132 R21 2
 X132 R22 3
 X132 R23 2
 X132 R24 3
 X132 R25 1
 X132 R27 3
 X132 COUNT 1
 X133 R1 3
 X133 R2 3
 X133 R3 1
 X133 R5 2
 X133 R6 2
 X133 R7 1
 X133 R8 1
 X133 R15 1
 X133 R16 2
 X133 R17 2
 X133 R18 3
 X133 R20 2
 X133 R21 4
 X133 R22 3
 X133 R23 3
 X133 R24 3
 X133 R25 2
 X133 R26 2
 X133 R27 2
 X133 COUNT 1
 X134 R0 3
 X134 R1 2
 X134 R2 2
 X134 R3 2
 X134 R5 3
 X134 R6 3
 X134 R7 1
 X134 R9 2
 X134 R10 2
 X134 R11 1
 X134 R12 1
 X134 R19 1
 X134 R20 2
 X134 R21 2
 X134 R22 3
 X134 R24 2
 X134 R25 4
 X134 R26 3
 X134 R27 3
 X134 COUNT 1
 X135 R0 2
 X135 R1 4
 X135 R2 3
 X135 R3 3
 X135 R4 3
 X135 R5 2
 X135 R6 2
 X135 R7 2
 X135 R9 3
 X135 R10 3
 X135 R11 1
 X135 R13 2
 X135 R14 2
 X135 R15 1
 X135 R16 1
 X135 R23 1
 X135 R24 2
 X135 R25 2
 X135 R26 3
 X135 COUNT 1
 X136 R0 2
 X136 R1 2
 X136 R2 3
 X136 R4 2
 X136 R5 4
 X136 R6 3
 X136 R7 3
 X136 R8 3
 X136 R9 2
 X136 R10 2
 X136 R11 2
 X136 R13 3
 X136 R14 3
 X136 R15 1
 X136 R17 2
 X136 R18 2
 X136 R19 1
 X136 R20 1
 X136 R27 1
 X136 COUNT 1
 X137 R3 1
 X137 R4 2
 X137 R5 2
 X137 R6 3
 X137 R8 2
 X137 R9 4
 X137 R10 3
 X137 R11 3
 X137 R12 3
 X137 R13 2
 X137 R14 2
 X137 R15 2
 X137 R17 3
 X137 R18 3
 X137 R19 1
 X137 R21 2
 X137 R22 2
 X137 R23 1
 X137 R24 1
 X137 COUNT 1
 X138 R0 1
 X138 R7 1
 X138 R8 2
 X138 R9 2
 X138 R10 3
 X138 R12 2
 X138 R13 4
 X138 R14 3
 X138 R15 3
 X138 R16 3
 X138 R17 2
 X138 R18 2
 X138 R19 2
 X138 R21 3
 X138 R22 3
 X138 R23 1
 X138 R25 2
 X138 R26 2
 X138 R27 1
 X138 COUNT 1
 X139 R1 2
 X139 R2 2
 X139 R3 1
 X139 R4 1
 X139 R11 1
 X139 R12 2
 X139 R13 2
 X139 R14 3
 X139 R16 2
 X139 R17 4
 X139 R18 3
 X139 R19 3
 X139 R20 3
 X139 R21 2
 X139 R22 2
 X139 R23 2
 X139 R25 3
 X139 R26 3
 X139 R27 1
 X139 COUNT 1
 X140 R0 1
 X140 R3 2
 X140 R9 2
 X140 R10 2
 X140 R12 2
 X140 R13 2
 X140 R14 3
 X140 R15 3
 X140 R16 4
 X140 R17 2
 X140 R19 3
 X140 R20 2
 X140 R21 1
 X140 R22 3
 X140 R23 2
 X140 R24 3
 X140 R25 2
 X140 R26 1
 X140 R27 2
 X140 COUNT 1
 X141 R0 3
 X141 R1 2
 X141 R2 1
 X141 R3 2
 X141 R4 1
 X141 R7 2
 X141 R13 2
 X141 R14 2
 X141 R16 2
 X141 R17 2
 X141 R18 3
 X141 R19 3
 X141 R20 4
 X141 R21 2
 X141 R23 3
 X141 R24 2
 X141 R25 1
 X141 R26 3
 X141 R27 2
 X141 COUNT 1
 X142 R0 2
 X142 R1 1
 X142 R2 3
 X142 R3 2
 X142 R4 3
 X142 R5 2
 X142 R6 1
 X142 R7 2
 X142 R8 1
 X142 R11 2
 X142 R17 2
 X142 R18 2
 X142 R20 2
 X142 R21 2
 X142 R22 3
 X142 R23 3
 X142 R24 4
 X142 R25 2
 X142 R27 3
 X142 COUNT 1
 X143 R0 4
 X143 R1 2
 X143 R3 3
 X143 R4 2
 X143 R5 1
 X143 R6 3
 X143 R7 2
 X143 R8 3
 X143 R9 2
 X143 R10 1
 X143 R11 2
 X143 R12 1
 X143 R15 2
 X143 R21 2
 X143 R22 2
 X143 R24 2
 X143 R25 2
 X143 R26 3
 X143 R27 3
 X143 COUNT 1
 X144 R0 2
 X144 R1 2
 X144 R2 3
 X144 R3 3
 X144 R4 4
 X144 R5 2
 X144 R7 3
 X144 R8 2
 X144 R9 1
 X144 R10 3
 X144 R11 2
 X144 R12 3
 X144 R13 2
 X144 R14 1
 X144 R15 2
 X144 R16 1
 X144 R19 2
 X144 R25 2
 X144 R26 2
 X144 COUNT 1
 X145 R1 2
 X145 R2 2
 X145 R4 2
 X145 R5 2
 X145 R6 3
 X145 R7 3
 X145 R8 4
 X145 R9 2
 X145 R11 3
 X145 R12 2
 X145 R13 1
 X145 R14 3
 X145 R15 2
 X145 R16 3
 X145 R17 2
 X145 R18 1
 X145 R19 2
 X145 R20 1
 X145 R23 2
 X145 COUNT 1
 X146 R5 2
 X146 R6 2
 X146 R8 2
 X146 R9 2
 X146 R10 3
 X146 R11 3
 X146 R12 4
 X146 R13 2
 X146 R15 3
 X146 R16 2
 X146 R17 1
 X146 R18 3
 X146 R19 2
 X146 R20 3
 X146 R21 2
 X146 R22 1
 X146 R23 2
 X146 R24 1
 X146 R27 2
 X146 COUNT 1
 X147 R1 2
 X147 R2 1
 X147 R8 2
 X147 R11 2
 X147 R12 3
 X147 R13 3
 X147 R14 2
 X147 R15 2
 X147 R17 3
 X147 R18 4
 X147 R19 2
 X147 R20 3
 X147 R21 2
 X147 R22 2
 X147 R23 1
 X147 R24 1
 X147 R25 2
 X147 R26 3
 X147 R27 2
 X147 COUNT 1
 X148 R0 1
 X148 R1 2
 X148 R2 3
 X148 R3 2
 X148 R5 2
 X148 R6 1
 X148 R12 2
 X148 R15 2
 X148 R16 3
 X148 R17 3
 X148 R18 2
 X148 R19 2
 X148 R21 3
 X148 R22 4
 X148 R23 2
 X148 R24 3
 X148 R25 2
 X148 R26 2
 X148 R27 1
 X148 COUNT 1
 X149 R0 3
 X149 R1 2
 X149 R2 2
 X149 R3 1
 X149 R4 1
 X149 R5 2
 X149 R6 3
 X149 R7 2
 X149 R9 2
 X149 R10 1
 X149 R16 2
 X149 R19 2
 X149 R20 3
 X149 R21 3
 X149 R22 2
 X149 R23 2
 X149 R25 3
 X149 R26 4
 X149 R27 2
 X149 COUNT 1
 X150 R1 3
 X150 R2 4
 X150 R3 2
 X150 R4 3
 X150 R5 2
 X150 R6 2
 X150 R7 1
 X150 R8 1
 X150 R9 2
 X150 R10 3
 X150 R11 2
 X150 R13 2
 X150 R14 1
 X150 R20 2
 X150 R23 2
 X150 R24 3
 X150 R25 3
 X150 R26 2
 X150 R27 2
 X150 COUNT 1
 X151 R0 3
 X151 R1 3
 X151 R2 2
 X151 R3 2
 X151 R5 3
 X151 R6 4
 X151 R7 2
 X151 R8 3
 X151 R9 2
 X151 R10 2
 X151 R11 1
 X151 R12 1
 X151 R13 2
 X151 R14 3
 X151 R15 2
 X151 R17 2
 X151 R18 1
 X151 R24 2
 X151 R27 2
 X151 COUNT 1
 X152 R0 2
 X152 R3 2
 X152 R4 3
 X152 R5 3
 X152 R6 2
 X152 R7 2
 X152 R9 3
 X152 R10 4
 X152 R11 2
 X152 R12 3
 X152 R13 2
 X152 R14 2
 X152 R15 1
 X152 R16 1
 X152 R17 2
 X152 R18 3
 X152 R19 2
 X152 R21 2
 X152 R22 1
 X152 COUNT 1
 X153 R4 2
 X153 R7 2
 X153 R8 3
 X153 R9 3
 X153 R10 2
 X153 R11 2
 X153 R13 3
 X153 R14 4
 X153 R15 2
 X153 R16 3
 X153 R17 2
 X153 R18 2
 X153 R19 1
 X153 R20 1
 X153 R21 2
 X153 R22 3
 X153 R23 2
 X153 R25 2
 X153 R26 1
 X153 COUNT 1
 X154 R1 1
 X154 R2 2
 X154 R8 2
 X154 R11 2
 X154 R12 2
 X154 R13 2
 X154 R14 3
 X154 R15 3
 X154 R16 2
 X154 R17 4
 X154 R18 3
 X154 R20 1
 X154 R21 2
 X154 R22 2
 X154 R23 3
 X154 R24 2
 X154 R25 3
 X154 R26 2
 X154 R27 1
 X154 COUNT 1
 X155 R0 2
 X155 R1 3
 X155 R2 2
 X155 R3 1
 X155 R5 1
 X155 R6 2
 X155 R12 2
 X155 R15 2
 X155 R16 2
 X155 R17 2
 X155 R18 3
 X155 R19 3
 X155 R20 2
 X155 R21 4
 X155 R22 3
 X155 R24 1
 X155 R25 2
 X155 R26 2
 X155 R27 3
 X155 COUNT 1
 X156 R0 1
 X156 R1 2
 X156 R2 2
 X156 R3 3
 X156 R4 2
 X156 R5 3
 X156 R6 2
 X156 R7 1
 X156 R9 1
 X156 R10 2
 X156 R16 2
 X156 R19 2
 X156 R20 2
 X156 R21 2
 X156 R22 3
 X156 R23 3
 X156 R24 2
 X156 R25 4
 X156 R26 3
 X156 COUNT 1
 X157 R0 2
 X157 R1 4
 X157 R2 3
 X157 R4 1
 X157 R5 2
 X157 R6 2
 X157 R7 3
 X157 R8 2
 X157 R9 3
 X157 R10 2
 X157 R11 1
 X157 R13 1
 X157 R14 2
 X157 R20 2
 X157 R23 2
 X157 R24 2
 X157 R25 2
 X157 R26 3
 X157 R27 3
 X157 COUNT 1
 X158 R0 2
 X158 R1 2
 X158 R2 3
 X158 R3 3
 X158 R4 2
 X158 R5 4
 X158 R6 3
 X158 R8 1
 X158 R9 2
 X158 R10 2
 X158 R11 3
 X158 R12 2
 X158 R13 3
 X158 R14 2
 X158 R15 1
 X158 R17 1
 X158 R18 2
 X158 R24 2
 X158 R27 2
 X158 COUNT 1
 X159 R0 2
 X159 R3 2
 X159 R4 2
 X159 R5 2
 X159 R6 3
 X159 R7 3
 X159 R8 2
 X159 R9 4
 X159 R10 3
 X159 R12 1
 X159 R13 2
 X159 R14 2
 X159 R15 3
 X159 R16 2
 X159 R17 3
 X159 R18 2
 X159 R19 1
 X159 R21 1
 X159 R22 2
 X159 COUNT 1
 X160 R4 2
 X160 R7 2
 X160 R8 2
 X160 R9 2
 X160 R10 3
 X160 R11 3
 X160 R12 2
 X160 R13 4
 X160 R14 3
 X160 R16 1
 X160 R17 2
 X160 R18 2
 X160 R19 3
 X160 R20 2
 X160 R21 3
 X160 R22 2
 X160 R23 1
 X160 R25 1
 X160 R26 2
 X160 COUNT 1
 X161 R0 2
 X161 R3 1
 X161 R9 2
 X161 R10 2
 X161 R12 3
 X161 R13 3
 X161 R14 2
 X161 R15 2
 X161 R16 3
 X161 R18 2
 X161 R19 4
 X161 R20 2
 X161 R21 3
 X161 R22 1
 X161 R23 2
 X161 R24 2
 X161 R25 1
 X161 R26 2
 X161 R27 3
 X161 COUNT 1
 X162 R0 2
 X162 R1 1
 X162 R2 2
 X162 R3 3
 X162 R4 2
 X162 R7 1
 X162 R13 2
 X162 R14 2
 X162 R16 3
 X162 R17 3
 X162 R18 2
 X162 R19 2
 X162 R20 3
 X162 R22 2
 X162 R23 4
 X162 R24 2
 X162 R25 3
 X162 R26 1
 X162 R27 2
 X162 COUNT 1
 X163 R0 2
 X163 R1 3
 X163 R2 1
 X163 R3 2
 X163 R4 2
 X163 R5 1
 X163 R6 2
 X163 R7 3
 X163 R8 2
 X163 R11 1
 X163 R17 2
 X163 R18 2
 X163 R20 3
 X163 R21 3
 X163 R22 2
 X163 R23 2
 X163 R24 3
 X163 R26 2
 X163 R27 4
 X163 COUNT 1
 X164 R0 3
 X164 R2 2
 X164 R3 4
 X164 R4 2
 X164 R5 3
 X164 R6 1
 X164 R7 2
 X164 R8 2
 X164 R9 1
 X164 R10 2
 X164 R11 3
 X164 R12 2
 X164 R15 1
 X164 R21 2
 X164 R22 2
 X164 R24 3
 X164 R25 3
 X164 R26 2
 X164 R27 2
 X164 COUNT 1
 X165 R0 3
 X165 R1 3
 X165 R2 2
 X165 R3 2
 X165 R4 3
 X165 R6 2
 X165 R7 4
 X165 R8 2
 X165 R9 3
 X165 R10 1
 X165 R11 2
 X165 R12 2
 X165 R13 1
 X165 R14 2
 X165 R15 3
 X165 R16 2
 X165 R19 1
 X165 R25 2
 X165 R26 2
 X165 COUNT 1
 X166 R1 2
 X166 R2 2
 X166 R4 3
 X166 R5 3
 X166 R6 2
 X166 R7 2
 X166 R8 3
 X166 R10 2
 X166 R11 4
 X166 R12 2
 X166 R13 3
 X166 R14 1
 X166 R15 2
 X166 R16 2
 X166 R17 1
 X166 R18 2
 X166 R19 3
 X166 R20 2
 X166 R23 1
 X166 COUNT 1
 X167 R5 2
 X167 R6 2
 X167 R8 3
 X167 R9 3
 X167 R10 2
 X167 R11 2
 X167 R12 3
 X167 R14 2
 X167 R15 4
 X167 R16 2
 X167 R17 3
 X167 R18 1
 X167 R19 2
 X167 R20 2
 X167 R21 1
 X167 R22 2
 X167 R23 3
 X167 R24 2
 X167 R27 1
 X167 COUNT 1
 MARK0001 'MARKER' 'INTEND'
RHS
 RHS1 R0 11
 RHS1 R1 9
 RHS1 R2 9
 RHS1 R3 12
 RHS1 R4 10
 RHS1 R5 10
 RHS1 R6 10
 RHS1 R7 9
 RHS1 R8 9
 RHS1 R9 8
 RHS1 R10 9
 RHS1 R11 10
 RHS1 R12 12
 RHS1 R13 10
 RHS1 R14 9
 RHS1 R15 10
 RHS1 R16 11
 RHS1 R17 12
 RHS1 R18 12
 RHS1 R19 12
 RHS1 R20 12
 RHS1 R21 12
 RHS1 R22 12
 RHS1 R23 11
 RHS1 R24 11
 RHS1 R25 10
 RHS1 R26 10
 RHS1 R27 12
 RHS1 COUNT 7
BOUNDS
 BV BND X1
 BV BND X2
 BV BND X3
 BV BND X4
 BV BND X5
 BV BND X6
 BV BND X7
 BV BND X8
 BV BND X9
 BV BND X10
 BV BND X11
 BV BND X12
 BV BND X13
 BV BND X14
 BV BND X15
 BV BND X16
 BV BND X17
 BV BND X18
 BV BND X19
 BV BND X20
 BV BND X21
 BV BND X22
 BV BND X23
 BV BND X24
 BV BND X25
 BV BND X26
 BV BND X27
 BV BND X28
 BV BND X29
 BV BND X30
 BV BND X31
 BV BND X32
 BV BND X33
 BV BND X34
 BV BND X35
 BV BND X36
 BV BND X37
 BV BND X38
 BV BND X39
 BV BND X40
 BV BND X41
 BV BND X42
 BV BND X43
 BV BND X44
 BV BND X45
 BV BND X46
 BV BND X47
 BV BND X48
 BV BND X49
 BV BND X50
 BV BND X51
 BV BND X52
 BV BND X53
 BV BND X54
 BV BND X55
 BV BND X56
 BV BND X57
 BV BND X58
 BV BND X59
 BV BND X60
 BV BND X61
 BV BND X62
 BV BND X63
 BV BND X64
 BV BND X65
 BV BND X66
 BV BND X67
 BV BND X68
 BV BND X69
 BV BND X70
 BV BND X71
 BV BND X72
 BV BND X73
 BV BND X74
 BV BND X75
 BV BND X76
 BV BND X77
 BV BND X78
 BV BND X79
 BV BND X80
 BV BND X81
 BV BND X82
 BV BND X83
 BV BND X84
 BV BND X85
 BV BND X86
 BV BND X87
 BV BND X88
 BV BND X89
 BV BND X90
 BV BND X91
 BV BND X92
 BV BND X93
 BV BND X94
 BV BND X95
 BV BND X96
 BV BND X97
 BV BND X98
 BV BND X99
 BV BND X100
 BV BND X101
 BV BND X102
 BV BND X103
 BV BND X104
 BV BND X105
 BV BND X106
 BV BND X107
 BV BND X108
 BV BND X109
 BV BND X110
 BV BND X111
 BV BND X112
 BV BND X113
 BV BND X114
 BV BND X115
 BV BND X116
 BV BND X117
 BV BND X118
 BV BND X119
 BV BND X120
 BV BND X121
 BV BND X122
 BV BND X123
 BV BND X124
 BV BND X125
 BV BND X126
 BV BND X127
 BV BND X128
 BV BND X129
 BV BND X130
 BV BND X131
 BV BND X132
 BV BND X133
 BV BND X134
 BV BND X135
 BV BND X136
 BV BND X137
 BV BND X138
 BV BND X139
 BV BND X140
 BV BND X141
 BV BND X142
 BV BND X143
 BV BND X144
 BV BND X145
 BV BND X146
 BV BND X147
 BV BND X148
 BV BND X149
 BV BND X150
 BV BND X151
 BV BND X152
 BV BND X153
 BV BND X154
 BV BND X155
 BV BND X156
 BV BND X157
 BV BND X158
 BV BND X159
 BV BND X160
 BV BND X161
 BV BND X162
 BV BND X163
 BV BND X164
 BV BND X165
 BV BND X166
 BV BND X167
ENDATA
